Operations Research(Coursera)/Ambulance Allocation/q2.sol
# Solution for model q2
# Objective value = 135
y1 0
w1 3
x11 0
x12 0
x13 0
x14 0
x15 0
x16 0
x17 0
x18 0
y2 1
w2 0
x21 1
x22 1
x23 0
x24 1
x25 0
x26 0
x27 0
x28 0
y3 0
w3 3
x31 0
x32 0
x33 0
x34 0
x35 0
x36 0
x37 0
x38 0
y4 0
w4 4
x41 0
x42 0
x43 0
x44 0
x45 0
x46 0
x47 0
x48 0
y5 0
w5 2
x51 0
x52 0
x53 0
x54 0
x55 0
x56 0
x57 0
x58 0
y6 1
w6 0
x61 0
x62 0
x63 1
x64 0
x65 1
x66 1
x67 1
x68 1
y7 0
w7 3
x71 0
x72 0
x73 0
x74 0
x75 0
x76 0
x77 0
x78 0
y8 0
w8 2
x81 0
x82 0
x83 0
x84 0
x85 0
x86 0
x87 0
x88 0
firefighting_times 135
